p cnf 12 50 
-11 -5 7 0
9 12 6 0
4 -6 -9 0
1 -2 -3 0
-7 3 9 0
6 7 10 0
-7 -6 10 0
-9 -2 8 0
9 -11 5 0
8 1 -6 0
5 -9 7 0
7 -10 8 0
-10 -9 -7 0
5 9 -10 0
11 4 -7 0
2 12 -11 0
4 3 -10 0
-2 -10 -5 0
9 -4 -10 0
-6 -8 -5 0
-5 -6 10 0
-11 -5 7 0
-4 1 -10 0
1 -12 -3 0
6 -1 2 0
-8 5 3 0
-7 -5 -3 0
-12 -5 1 0
-9 -7 -10 0
-1 -3 -7 0
3 -4 -9 0
-6 -12 -3 0
8 -2 11 0
4 11 -8 0
-7 11 -1 0
-10 6 3 0
3 6 10 0
-2 5 3 0
-5 -10 7 0
-4 -12 3 0
-9 -2 -5 0
-11 -1 2 0
12 3 -2 0
-12 -10 -9 0
-10 1 3 0
3 -5 -4 0
4 -10 -1 0
12 1 -2 0
-5 -10 -1 0
-2 7 -4 0
